Gurobi Optimizer version 9.1.2 build v9.1.2rc0 (linux64)
Thread count: 36 physical cores, 72 logical processors, using up to 32 threads
Optimize a model with 12 rows, 57 columns and 590 nonzeros
Model fingerprint: 0xf32eec78
Model has 47 quadratic constraints
Coefficient statistics:
  Matrix range     [2e-05, 3e+00]
  QMatrix range    [1e+00, 1e+00]
  QLMatrix range   [1e+00, 1e+00]
  Objective range  [8e-03, 7e-01]
  Bounds range     [1e+00, 1e+00]
  RHS range        [1e+00, 1e+00]
Presolve removed 9 rows and 0 columns

Continuous model is non-convex -- solving as a MIP.

Presolve removed 9 rows and 0 columns
Presolve time: 0.00s
Presolved: 189 rows, 57 columns, 443 nonzeros
Presolved model has 47 bilinear constraint(s)
Variable types: 57 continuous, 0 integer (0 binary)

Root relaxation: objective -1.743721e+00, 44 iterations, 0.00 seconds

    Nodes    |    Current Node    |     Objective Bounds      |     Work
 Expl Unexpl |  Obj  Depth IntInf | Incumbent    BestBd   Gap | It/Node Time

     0     0   -1.74372    0   38          -   -1.74372      -     -    0s
H    0     0                       0.6147548   -1.74372   384%     -    0s
     0     0   -1.64739    0    1    0.61475   -1.64739   368%     -    0s
H    0     0                      -1.6450460   -1.64739  0.14%     -    0s
     0     0     cutoff    0        -1.64505   -1.64505  0.00%     -    0s

Cutting planes:
  RLT: 25
  BQP: 3

Explored 1 nodes (76 simplex iterations) in 0.01 seconds
Thread count was 32 (of 72 available processors)

Solution count 2: -1.64505 0.614755 
No other solutions better than -1.64505

Optimal solution found (tolerance 1.00e-04)
Best objective -1.645045978473e+00, best bound -1.645045978473e+00, gap 0.0000%

User-callback calls 78, time in user-callback 0.00 sec
Gurobi Optimizer version 9.1.2 build v9.1.2rc0 (linux64)
Thread count: 36 physical cores, 72 logical processors, using up to 32 threads
Optimize a model with 24 rows, 120 columns and 2480 nonzeros
Model fingerprint: 0x6db179ff
Model has 100 quadratic constraints
Coefficient statistics:
  Matrix range     [8e-06, 4e+00]
  QMatrix range    [1e+00, 1e+00]
  QLMatrix range   [1e+00, 1e+00]
  Objective range  [4e-03, 1e+00]
  Bounds range     [1e+00, 1e+00]
  RHS range        [1e+00, 1e+00]
Presolve removed 18 rows and 0 columns

Continuous model is non-convex -- solving as a MIP.

Presolve removed 18 rows and 0 columns
Presolve time: 0.00s
Presolved: 406 rows, 120 columns, 1113 nonzeros
Presolved model has 100 bilinear constraint(s)
Variable types: 120 continuous, 0 integer (0 binary)

Root relaxation: objective -6.377724e+00, 136 iterations, 0.00 seconds

    Nodes    |    Current Node    |     Objective Bounds      |     Work
 Expl Unexpl |  Obj  Depth IntInf | Incumbent    BestBd   Gap | It/Node Time

     0     0   -6.37772    0   86          -   -6.37772      -     -    0s
H    0     0                       1.0541747   -6.37772   705%     -    0s
     0     0   -4.42875    0   90    1.05417   -4.42875   520%     -    0s
H    0     0                       0.6877885   -4.42875   744%     -    0s
     0     0   -3.94344    0  100    0.68779   -3.94344   673%     -    0s
H    0     0                      -0.5004570   -3.94344   688%     -    0s
     0     0   -3.92525    0  100   -0.50046   -3.92525   684%     -    0s
     0     0   -3.80588    0   90   -0.50046   -3.80588   660%     -    0s
H    0     0                      -1.1551325   -3.80588   229%     -    0s
     0     0   -3.80397    0   84   -1.15513   -3.80397   229%     -    0s
     0     0   -3.77845    0   90   -1.15513   -3.77845   227%     -    0s
     0     0   -3.76700    0   90   -1.15513   -3.76700   226%     -    0s
     0     0   -3.75625    0   90   -1.15513   -3.75625   225%     -    0s
H    0     0                      -1.4536587   -3.75625   158%     -    0s
     0     0   -3.75455    0  100   -1.45366   -3.75455   158%     -    0s
     0     0   -3.75197    0   84   -1.45366   -3.75197   158%     -    0s
H    0     0                      -1.6722500   -3.75197   124%     -    0s
     0     0   -3.75182    0   84   -1.67225   -3.75182   124%     -    0s
     0     0   -3.75141    0   90   -1.67225   -3.75141   124%     -    0s
H    0     0                      -3.0350254   -3.75141  23.6%     -    0s
H    0     0                      -3.0563859   -3.75141  22.7%     -    0s
H    0     0                      -3.0603698   -3.75141  22.6%     -    0s
H    0     0                      -3.0851749   -3.75141  21.6%     -    0s
     0     2   -3.75141    0   90   -3.08517   -3.75141  21.6%     -    0s
*  535   256              15      -3.0864802   -3.43194  11.2%  25.5    0s
*  593   342              23      -3.0984399   -3.43194  10.8%  24.0    0s
*  646   342              19      -3.2394109   -3.43194  5.94%  22.4    0s
*  814   242              23      -3.2423746   -3.35146  3.36%  19.1    0s
*  894   201              18      -3.2437605   -3.31180  2.10%  18.2    0s
* 1081   175              22      -3.2444573   -3.28309  1.19%  15.5    0s
* 1142   175              23      -3.2450389   -3.28309  1.17%  14.9    0s
* 1143   175              23      -3.2450424   -3.28309  1.17%  14.9    0s
* 1151   175              24      -3.2451947   -3.28309  1.17%  14.8    0s
* 1258   131              21      -3.2452702   -3.27637  0.96%  13.7    0s
* 1260   131              22      -3.2456893   -3.27637  0.95%  13.7    0s
* 1261   131              22      -3.2456901   -3.27637  0.95%  13.7    0s
* 1501    14              20      -3.2456909   -3.24628  0.02%  11.8    0s
* 1502    14              20      -3.2456916   -3.24628  0.02%  11.8    0s
* 1505    14              17      -3.2457027   -3.24628  0.02%  11.8    0s

Cutting planes:
  RLT: 55
  BQP: 12
  PSD: 5

Explored 1606 nodes (18313 simplex iterations) in 0.48 seconds
Thread count was 32 (of 72 available processors)

Solution count 10: -3.2457 -3.24569 -3.24569 ... -3.24376

Optimal solution found (tolerance 1.00e-04)
Best objective -3.245702747464e+00, best bound -3.245896970558e+00, gap 0.0060%

User-callback calls 3486, time in user-callback 0.00 sec



objective value: -3.245702747464315
objective bound: -3.245896970557513
x_opt: [0.0, 1.0, 1.0, 0.0, 1.0, 0.30464470189058285, 0.0, 0.0, 1.0, 0.3850161498381966, 0.0, 0.039568989362051804, 0.0, 1.0, 0.0, 0.867221839017608, 1.0, 0.9220936987673262, 0.0, 1.0]
GUROBI solution time: 0.47846007347106934




